c description: Random 3-CNF over 14 variables and 42 clauses
p cnf 14 42
2 10 13 0
5 10 -11 0
1 3 -5 0
1 8 -12 0
5 6 7 0
-7 -8 -9 0
-11 12 -14 0
3 -5 -6 0
-4 9 12 0
1 10 -12 0
-7 -8 12 0
-1 -2 4 0
4 6 -13 0
-2 3 11 0
-2 5 12 0
-2 4 -5 0
2 7 14 0
7 -8 -14 0
-3 5 -14 0
-6 -8 12 0
-8 11 14 0
-6 -12 13 0
-8 -9 -10 0
-5 -7 12 0
-2 7 -13 0
1 -6 7 0
5 -9 14 0
-1 -3 -7 0
5 -6 -12 0
2 11 13 0
1 6 -13 0
5 -6 -10 0
-1 9 13 0
-3 6 -7 0
3 12 -13 0
-1 6 -7 0
-3 -4 9 0
-1 -5 -9 0
-5 6 7 0
-6 -7 11 0
2 6 -8 0
2 -10 -11 0